25 2
25 1000
10
7
13
19
26
3
5
9
16
16
12
19
23
20
8
19
2
12
17
9
11
18
29
3
6
35 35 0 1000 0 0
41 49 707 848 10 2
35 17 143 282 10 1
55 45 527 584 10 3
55 20 678 801 10 3
15 30 34 209 10 2
25 30 415 514 10 2
20 50 331 410 10 3
10 43 404 481 10 1
55 60 400 497 10 3
30 60 577 632 10 2
20 65 206 325 10 1
50 35 228 345 10 2
30 25 690 827 10 1
15 10 32 243 10 3
30 5 175 300 10 2
10 20 272 373 10 2
5 30 733 870 10 1
20 40 377 434 10 3
15 60 269 378 10 1
45 65 581 666 10 1
45 20 214 331 10 3
45 10 409 494 10 1
55 5 206 325 10 3
65 35 704 847 10 1
65 20 817 956 10 2
8 6 0 1000 5 4
64 9 0 1000 5 4
0 1
0 0
0 1
0 1
1 0
1 0
1 0
0 0
0 1
1 0
0 0
0 1
0 0
1 0
1 0
1 0
0 0
1 0
0 0
0 0
0 1
0 0
0 1
0 0
0 1
